r = [
0,8,12,8,9,8,12,3,3,7,11,0
];
p = [
0,24,7,12,14,8,15,6,6,18,16,0
];
e = [
0,2,12,11,13,3,18,2,8,17,7,0
];
d = [
0,101,124,130,172,163,93,92,100,152,153,185
];
d_bar = [
0,123,130,141,185,170,107,97,105,168,167,185
];
w = [
0,0.090909091,2,1,1,0.428571429,1.285714286,0.4,1.6,1.0625,0.5,0
];
